108, 96, 82, 72, 67, 98, 24, 50, 89, 114, 76, 23, 97, 14, 15, 119, 71, 112, 47, 99, 35, 8, 69, 102, 59, 9, 51, 39, 66, 19, 100, 41, 80, 93, 36, 103, 110, 77, 83, 86, 45, 34, 54, 81, 109, 84, 21, 75, 48, 62, 40, 58, 92, 91, 95, 37, 25, 13, 3, 115, 70, 5, 17, 73, 117, 33, 1, 18, 26, 7, 105, 60, 65, 85, 12, 116, 113, 55, 101, 42, 46, 107, 68, 28, 10, 11, 104, 64, 90, 16, 87, 44, 31, 88, 106, 30, 52, 49, 74, 79, 22, 27, 53, 57, 43, 29, 94, 120, 2, 78, 56, 6, 111, 32, 61, 20, 4, 63, 118, 38, 